c A SAT instance generated from a 3-CNF formula that had 20 clauses and 8 variables
p cnf 8 20
-1 -2 6 0
5 1 -2 0
5 8 -7 0
-7 -5 8 0
-1 6 -2 0
-8 -6 -2 0
7 3 -2 0
3 -7 -1 0
5 4 3 0
5 6 -1 0
2 6 -3 0
3 4 -5 0
-8 -6 -1 0
2 -8 1 0
-3 -8 7 0
-3 -2 -6 0
3 7 5 0
-2 7 -5 0
3 -1 4 0
5 6 -8 0
